nApps = 226
nRes = 9
nActs = 438
nNetworks = 6

assignmentToResources = [2,2,2,1,2,1,2,2,2,1,3,1,3,1,1,3,3,2,3,1,3,2,3,2,2,2,1,1,2,2,1,2,1,1,2,3,1,3,2,1,2,2,3,3,1,2,2,3,1,2,2,2,2,3,1,2,2,3,2,3,3,3,2,1,1,3,1,2,2,1,3,2,1,3,2,1,3,3,1,2,2,1,2,3,2,3,2,2,3,2,1,2,1,2,3,2,2,2,3,3,5,5,5,5,5,4,4,4,5,5,4,4,5,5,5,5,5,4,4,4,6,6,6,6,6,6,6,6,6,6,4,4,4,4,4,4,4,6,6,6,6,6,6,6,6,4,4,6,6,5,5,5,5,5,5,5,4,4,4,5,5,4,4,4,5,5,5,4,4,5,6,6,6,6,4,4,4,4,6,6,4,4,5,6,6,6,6,4,4,4,5,5,6,4,4,5,5,6,4,4,5,5,5,5,6,6,6,6,6,4,4,4,6,6,4,4,5,4,4,4,4,6,6,6,6,6,4,4,5,5,5,4,4,4,5,5,6,5,5,5,5,6,5,4,4,4,6,6,5,5,5,6,6,4,8,5,9,4,9,6,8,5,7,6,8,4,9,4,8,4,8,4,9,6,8,6,7,4,9,4,9,6,8,6,7,7,7,9,9,7,9,8,8,9,9,8,8,7,7,9,7,9,8,8,8,7,8,8,8,7,8,8,7,7,7,9,9,8,8,8,8,8,8,8,7,7,7,8,8,7,8,8,8,7,7,7,9,7,7,7,7,8,8,9,7,7,8,8,8,9,9,9,8,8,9,8,8,8,8,9,9,9,9,8,8,8,8,7,8,7,8,8,8,9,8,9,7,8,9,8,9,7,8,9,8,9,9,9,9,8,8,8,8,8,9,8,8,8,7,9,8,9,8,8,8,8,8,8,8,8,8,8,9,7,7,7,8,8,9,7,9,7,9,7,7,7,8,7,9,9,9,8,7,7,7,9,8,8];

processingTimes = [152,136,176,104,104,136,56,128,128,48,128,128,128,128,144,128,144,136,120,128,64,88,144,80,112,136,88,136,112,160,128,112,56,160,136,136,112,88,120,152,112,136,120,128,112,144,56,168,152,104,112,152,64,120,168,104,80,112,64,120,152,64,128,120,80,128,144,64,56,160,152,136,104,120,136,96,112,120,128,136,48,144,136,112,64,120,136,136,128,88,136,104,128,96,96,128,136,136,64,104,5,6,4,4,4,500,500,3,3,500,500,3,500,4,4,4,4,4,4,5,4,4,4,3,3,3,4,4,500,4,3,4,3,3,5,3,3,8,3,500,4,500,4,500,3,100,3,500,3,4,4,500,3,4,500,3,13,500,500,4,5,4,3,3,4,500,4,3,3,5,3,500,5,4,3,3,4,4,3,3,500,3,3,3,4,3,4,3,5,500,3,3,3,4,3,4,4,4,4,4,4,3,500,5,4,13,3,3,3,500,3,500,3,3,4,500,4,3,4,4,4,4,4,4,4,500,3,3,500,4,4,500,4,4,500,4,4,3,4,500,4,5,500,100,5,5,3,4,4,500,3,3,500,500,500,500,500,500,500,500,500,4,4,4,4,7,7,3,3,3,3,5,5,4,4,7,7,3,3,23,23,3,3,3,3,5,6,4,4,4,500,500,3,3,500,500,3,500,4,4,4,4,4,4,5,4,4,4,3,3,3,4,4,500,4,3,4,3,3,5,3,3,8,3,500,4,500,4,500,3,100,3,500,3,4,4,500,3,4,500,3,13,500,500,4,5,4,3,3,4,500,4,3,3,5,3,500,5,4,3,3,4,4,3,3,500,3,3,3,4,3,4,3,5,500,3,3,3,4,3,4,4,4,4,4,4,3,500,5,4,13,3,3,3,500,3,500,3,3,4,500,4,3,4,4,4,4,4,4,4,500,3,3,500,4,4,500,4,4,500,4,4,3,4,500,4,5,500,100,5,5,3,4,4,500,3,3,500];

periods = [10000,10000,20000,20000,10000,10000,10000,2000,10000,20000,100000,20000,50000,5000,20000,20000,10000,20000,100000,1000,10000,20000,5000,100000,100000,10000,10000,10000,100000,20000,100000,10000,20000,100000,20000,100000,100000,20000,20000,20000,10000,20000,10000,20000,10000,20000,10000,10000,10000,20000,10000,100000,10000,10000,10000,50000,20000,100000,10000,100000,5000,100000,10000,100000,100000,1000,10000,100000,20000,10000,10000,5000,20000,10000,100000,10000,100000,10000,100000,100000,20000,10000,20000,20000,5000,100000,100000,100000,10000,100000,20000,20000,1000,100000,10000,100000,10000,20000,20000,10000,10000,10000,10000,10000,20000,20000,20000,20000,10000,10000,10000,10000,10000,10000,10000,10000,10000,20000,20000,20000,100000,100000,100000,100000,100000,50000,50000,50000,50000,50000,5000,5000,5000,20000,20000,20000,20000,20000,10000,10000,100000,100000,100000,100000,100000,1000,1000,10000,10000,20000,20000,100000,100000,100000,10000,10000,10000,10000,10000,100000,20000,100000,100000,100000,10000,10000,10000,20000,100000,20000,100000,100000,100000,100000,100000,100000,100000,100000,20000,20000,20000,20000,10000,10000,10000,10000,20000,10000,10000,10000,20000,10000,10000,10000,10000,20000,10000,10000,10000,10000,50000,20000,20000,20000,100000,5000,100000,100000,100000,100000,100000,100000,1000,1000,10000,10000,20000,10000,10000,10000,20000,10000,100000,100000,100000,10000,100000,100000,20000,20000,20000,10000,10000,10000,20000,20000,20000,5000,5000,5000,5000,100000,100000,1000,1000,1000,10000,10000,10000,10000,20000,20000,10000,20000,20000,20000,20000,20000,20000,20000,20000,10000,10000,10000,10000,10000,10000,20000,20000,20000,20000,20000,20000,20000,20000,100000,100000,100000,100000,100000,100000,100000,100000,1000,1000,10000,10000,10000,10000,20000,20000,20000,20000,10000,10000,10000,10000,10000,10000,10000,10000,10000,20000,20000,20000,100000,100000,100000,100000,100000,50000,50000,50000,50000,50000,5000,5000,5000,20000,20000,20000,20000,20000,10000,10000,100000,100000,100000,100000,100000,1000,1000,10000,10000,20000,20000,100000,100000,100000,10000,10000,10000,10000,10000,100000,20000,100000,100000,100000,10000,10000,10000,20000,100000,20000,100000,100000,100000,100000,100000,100000,100000,100000,20000,20000,20000,20000,10000,10000,10000,10000,20000,10000,10000,10000,20000,10000,10000,10000,10000,20000,10000,10000,10000,10000,50000,20000,20000,20000,100000,5000,100000,100000,100000,100000,100000,100000,1000,1000,10000,10000,20000,10000,10000,10000,20000,10000,100000,100000,100000,10000,100000,100000,20000,20000,20000,10000,10000,10000,20000,20000,20000,5000,5000,5000,5000,100000,100000,1000,1000,1000,10000,10000,10000,10000,20000,20000,10000];

assignmentToClusters = [1,2,3,4,5,6,7,8,6,9,10,11,12,13,14,15,16,17,18,19,20,21,22,23,24,25,26,27,24,28,18,29,30,31,14,32,33,34,35,36,37,35,38,4,39,15,40,41,42,11,43,44,45,46,47,48,49,18,50,51,52,18,53,18,54,19,55,56,57,58,6,59,4,60,56,61,62,63,64,65,11,66,67,4,68,18,18,24,69,44,15,4,70,65,6,24,71,4,72,73,74,75,76,77,78,79,80,81,82,83,84,85,86,87,88,89,90,91,92,93,94,95,96,97,98,99,100,101,102,103,104,105,106,107,108,109,110,111,112,113,114,115,116,117,118,119,120,121,122,123,124,125,126,127,128,129,130,131,132,133,134,135,136,137,138,139,140,141,142,143,144,145,146,147,148,149,150,151,152,153,154,155,156,157,158,159,160,161,162,163,164,165,166,167,168,169,170,171,172,173,174,175,176,177,178,179,180,181,182,183,184,185,186,187,188,189,190,191,192,193,194,195,196,197,198,199,200,201,202,203,204,205,206,207,208,209,210,211,212,213,214,215,216,217,218,219,220,221,222,223,224,225,226,4,4,4,4,4,4,4,4,6,6,6,6,6,6,11,11,14,14,15,15,15,15,18,18,18,18,18,18,18,18,19,19,74,75,76,77,78,79,80,81,82,83,84,85,86,87,88,89,90,91,92,93,94,95,96,97,98,99,100,101,102,103,104,105,106,107,108,109,110,111,112,113,114,115,116,117,118,119,120,121,122,123,124,125,126,127,128,129,130,131,132,133,134,135,136,137,138,139,140,141,142,143,144,145,146,147,148,149,150,151,152,153,154,155,156,157,158,159,160,161,162,163,164,165,166,167,168,169,170,171,172,173,174,175,176,177,178,179,180,181,182,183,184,185,186,187,188,189,190,191,192,193,194,195,196,197,198,199,200,201,202,203,204,205,206,207,208,209,210,211,212,213,214,215,216,217,218,219,220,221,222,223,224,225,226];

precedenceAdjList = [[],[],[],[],[],[262],[],[],[264],[],[],[],[],[],[],[272],[],[],[],[284],[],[],[],[],[],[],[],[],[],[],[276],[],[],[],[270],[],[],[],[41],[],[],[],[],[256,258],[],[274],[],[],[],[80],[],[89],[],[],[],[],[],[280],[],[],[],[57,278],[],[],[],[],[],[74],[],[],[266],[],[],[],[],[],[],[],[],[93],[268],[],[],[43],[],[61],[282],[24],[],[],[],[260],[],[],[],[87,28],[],[254],[],[],[],[],[],[],[],[],[],[],[],[],[],[],[],[],[],[],[],[],[],[],[],[],[],[],[],[],[],[],[],[],[],[],[],[],[],[],[],[],[],[],[],[],[],[],[],[],[],[],[],[],[],[],[],[],[],[],[],[],[],[],[],[],[],[],[],[],[],[],[],[],[],[],[],[],[],[],[],[],[],[],[],[],[],[],[],[],[],[],[],[],[],[],[],[],[],[],[],[],[],[],[],[],[],[],[],[],[],[],[],[],[],[],[],[],[],[],[],[],[],[],[],[],[],[],[],[],[],[],[],[],[],[],[],[],[],[],[],[],[],[],[],[],[],[],[],[],[],[],[],[],[],[],[],[3],[253],[97],[255],[72],[257],[43],[259],[8],[261],[94],[263],[5],[265],[11],[267],[14],[269],[90],[271],[15],[273],[18],[275],[30],[277],[63],[279],[61],[281],[65],[283],[100],[101],[102],[103],[104],[105],[106],[107],[108],[109],[110],[111],[112],[113],[114],[115],[116],[117],[118],[119],[120],[121],[122],[123],[124],[125],[126],[127],[128],[129],[130],[131],[132],[133],[134],[135],[136],[137],[138],[139],[140],[141],[142],[143],[144],[145],[146],[147],[148],[149],[150],[151],[152],[153],[154],[155],[156],[157],[158],[159],[160],[161],[162],[163],[164],[165],[166],[167],[168],[169],[170],[171],[172],[173],[174],[175],[176],[177],[178],[179],[180],[181],[182],[183],[184],[185],[186],[187],[188],[189],[190],[191],[192],[193],[194],[195],[196],[197],[198],[199],[200],[201],[202],[203],[204],[205],[206],[207],[208],[209],[210],[211],[212],[213],[214],[215],[216],[217],[218],[219],[220],[221],[222],[223],[224],[225],[226],[227],[228],[229],[230],[231],[232],[233],[234],[235],[236],[237],[238],[239],[240],[241],[242],[243],[244],[245],[246],[247],[248],[249],[250],[251],[252]];